certificates/rado_a9_c16_N20.drat
3 2 -20 0
-18 -20 0
d -18 -2 -20 0
-3 -19 0
3 -20 0
d 3 2 -20 0
-2 -3 0
d -13 -2 -3 0
-3 -20 0
d -9 -3 -20 0
-20 0
-3 0
14 0
9 0
2 0
-4 0
-16 0
-12 0
-11 0
-1 0
-7 0
15 0
5 0
0
